data;

param num_top:=5;

#nodes and edges of the physical network
param n := 10;

set E := (1,2) (1,3) (1,7) (2,4) (2,7) (3,5) (4,8) (5,6) (5,7) (6,7) (6,9) (7,8) (7,9) (8,10) (9,10) ;

#nodes and edges of the virtual networks
set Nl[1] := 5 1 7 2 ;
set Nl[2] := 3 1 6 4 ;
set Nl[3] := 1 5 6 7 4 ;
set Nl[4] := 3 4 2 7 9 ;
set Nl[5] := 9 4 10 3 ;

set El[1] := (1,5) (1,7) (2,7) (2,5) ;
set El[2] := (1,3) (1,6) (4,6) (3,4) (3,6) (1,4) ;
set El[3] := (1,5) (5,6) (6,7) (4,7) (1,4) ;
set El[4] := (3,4) (2,4) (2,7) (7,9) (3,9) (4,7) (2,3) (4,9) (2,9) (3,7) ;
set El[5] := (4,9) (4,10) (3,10) (3,9) (9,10) (3,4) ;
